Argumentos: 
./solver.release -i 27 -t 86400 -a 7 -h 86400 -w Testes/R1-i27 -m R1_modeloCom2345.mod -o R1_modeloCom2345.mod 
Seed: 1623016528
hidden-TXT/Sc-n110w4.txt
hidden-TXT/H0-n110w4-2.txt
hidden-TXT/WD-n110w4-0.txt hidden-TXT/WD-n110w4-2.txt hidden-TXT/WD-n110w4-7.txt hidden-TXT/WD-n110w4-0.txt 
Reading model section from R1_modeloCom2345.mod...
367 lines were read
Reading data section from Testes/R1-i27/27.dat...
19773 lines were read
Generating obj...
Generating H1turnoDia...
Generating H2coberturaMinima...
Generating H3AsucessaoTurnos...
Generating H3BsucessaoTurnos...
Generating H4qualificacao...
Generating S1coberturaOtima...
Generating auxS5...
Generating S6a...
Generating S6b...
Generating auxS7...
Generating S7...
Model has been successfully generated
Writing problem data to `Testes/R1-i27/27.lp'...
380489 lines were written
CPX0000  Tried aggregator 2 times.
CPX0000  MIP Presolve eliminated 21883 rows and 91739 columns.
CPX0000  MIP Presolve modified 5930 coefficients.
CPX0000  Aggregator did 6 substitutions.
CPX0000  Reduced MIP has 10515 rows, 21082 columns, and 120117 nonzeros.
CPX0000  Reduced MIP has 20439 binaries, 643 generals, 0 SOSs, and 0 indicators.
CPX0000  Presolve time = 0.26 sec. (161.55 ticks)
CPX0000  Found incumbent of value 367490.000000 after 0.54 sec. (328.04 ticks)
[1m[30m[ZEN] [0m00:00:00 [1m[34m 367490.00[1m[32m  100.00%
[0mCPX0000  Probing time = 0.02 sec. (6.92 ticks)
CPX0000  Tried aggregator 1 time.
CPX0000  Reduced MIP has 10515 rows, 21082 columns, and 120117 nonzeros.
CPX0000  Reduced MIP has 20439 binaries, 643 generals, 0 SOSs, and 0 indicators.
CPX0000  Presolve time = 0.06 sec. (47.66 ticks)
CPX0000  Probing time = 0.02 sec. (6.32 ticks)
CPX0000  Clique table members: 14945.
CPX0000  MIP emphasis: balance optimality and feasibility.
CPX0000  MIP search method: dynamic search.
CPX0000  Parallel mode: none, using 1 thread.
CPX0000  Root relaxation solution time = 0.99 sec. (652.53 ticks)
CPX0000
CPX0000          Nodes                                         Cuts/
CPX0000     Node  Left     Objective  IInf  Best Integer    Best Bound    ItCnt     Gap
CPX0000
CPX0000  *     0+    0                       367490.0000        0.0000     7278  100.00%
CPX0000        0     0      820.0000   658   367490.0000      820.0000     7278   99.78%
CPX0000  *     0+    0                         7380.0000      820.0000     7278   88.89%
[1m[30m[ZEN] [0m00:00:01 [1m[34m   7380.00[1m[32m   88.89%
[0mCPX0000        0     0      820.0000    99     7380.0000      Cuts: 47     7920   88.89%
CPX0000  *     0+    0                         2150.0000      820.0000     7920   61.86%
[1m[30m[ZEN] [0m00:00:05 [1m[34m   2150.00[1m[32m   61.86%
[0mCPX0000        0     0      820.0000   257     2150.0000     Cuts: 300     8727   61.86%
CPX0000        0     0      820.0000    82     2150.0000      Cuts: 58     9087   61.86%
CPX0000  *     0+    0                         1410.0000      820.0000     9087   41.84%
CPX0000  *     0+    0                         1260.0000      820.0000     9087   34.92%
CPX0000  *     0+    0                         1210.0000      820.0000     9087   32.23%
[1m[30m[ZEN] [0m00:00:08 [1m[34m   1210.00[1m[32m   32.23%
[0mCPX0000        0     0      820.0000   185     1210.0000     Cuts: 210     9663   32.23%
CPX0000  *     0+    0                         1060.0000      820.0000     9663   22.64%
[1m[30m[ZEN] [0m00:00:09 [1m[34m   1060.00[1m[32m   22.64%
[0mCPX0000        0     2      820.0000    55     1060.0000      820.0000     9663   22.64%
CPX0000  Elapsed time = 9.49 sec. (5909.28 ticks, tree = 0.00 MB
CPX0000       17    19      820.0000    73     1060.0000      820.0000    11283   22.64%
CPX0000       30    32      820.0000    41     1060.0000      820.0000    11816   22.64%
CPX0000       50    52      820.0000   135     1060.0000      820.0000    12995   22.64%
CPX0000       75    77      820.0000   111     1060.0000      820.0000    14311   22.64%
CPX0000      102   104      820.0000    48     1060.0000      820.0000    15147   22.64%
CPX0000      131   133      820.0000    39     1060.0000      820.0000    16065   22.64%
CPX0000      158   160      820.0000    32     1060.0000      820.0000    17375   22.64%
CPX0000      175   177      820.0000    25     1060.0000      820.0000    18708   22.64%
CPX0000      194   196      820.0000    23     1060.0000      820.0000    20246   22.64%
CPX0000      288   290      820.0000    17     1060.0000      820.0000    24959   22.64%
CPX0000  Elapsed time = 14.74 sec. (9116.08 ticks, tree = 29.01 MB
CPX0000  *   350+  350                          920.0000      820.0000    28739   10.87%
[1m[30m[ZEN] [0m00:00:15 [1m[34m    920.00[1m[32m   10.87%
[0mCPX0000      362   364      840.0000   105      920.0000      820.0000    30764   10.87%
CPX0000  *   380+  380                          870.0000      820.0000    33028    5.75%
[1m[30m[ZEN] [0m00:00:16 [1m[34m    870.00[1m[32m    5.75%
[0mCPX0000  *   382   375      integral     0      850.0000      820.0000    33254    3.53%
[1m[30m[ZEN] [0m00:00:17 [1m[34m    850.00[1m[32m    3.53%
[0mCPX0000      463   454      840.0000    41      850.0000      820.0000    38494    3.53%
CPX0000  *   503+  375                          840.0000      820.0000    40000    2.38%
[1m[30m[ZEN] [0m00:00:19 [1m[34m    840.00[1m[32m    2.38%
[0mCPX0000  *   504+  250                          830.0000      820.0000    52631    1.20%
[1m[30m[ZEN] [0m00:00:31 [1m[34m    830.00[1m[32m    1.20%
[0mCPX0000      504   251      820.0000    72      830.0000      820.0000    52745    1.20%
CPX0000      552   282      820.0000   153      830.0000      820.0000    56112    1.20%
CPX0000      604   306      820.0000    56      830.0000      820.0000    57848    1.20%
CPX0000      688   348      820.0000    29      830.0000      820.0000    62944    1.20%
CPX0000      754   362      820.0000    49      830.0000      820.0000    66549    1.20%
CPX0000      841   370      820.0000    64      830.0000      820.0000    70270    1.20%
CPX0000      910   357      820.0000     9      830.0000      820.0000    75573    1.20%
CPX0000  Elapsed time = 41.60 sec. (27644.62 ticks, tree = 31.67 MB
CPX0000      977   315    infeasible            830.0000      820.0000    80769    1.20%
CPX0000     1046   334      820.0000     7      830.0000      820.0000    86101    1.20%
CPX0000     1092   333    infeasible            830.0000      820.0000    92912    1.20%
CPX0000     1148   339      820.0000    14      830.0000      820.0000    99408    1.20%
CPX0000     1209   341      820.0000    62      830.0000      820.0000   105291    1.20%
CPX0000     1264   345      820.0000    11      830.0000      820.0000   111923    1.20%
CPX0000     1320   355      820.0000     9      830.0000      820.0000   118316    1.20%
CPX0000     1377   359      820.0000    76      830.0000      820.0000   124001    1.20%
CPX0000     1451   370      820.0000    56      830.0000      820.0000   130239    1.20%
CPX0000     1514   372      820.0000    27      830.0000      820.0000   135833    1.20%
CPX0000  Elapsed time = 56.33 sec. (37438.58 ticks, tree = 30.78 MB
CPX0000     1595   379      820.0000    13      830.0000      820.0000   143404    1.20%
CPX0000     1679   386      820.0000    13      830.0000      820.0000   150562    1.20%
CPX0000     1760   400      820.0000    14      830.0000      820.0000   156305    1.20%
CPX0000     1830   400      820.0000    18      830.0000      820.0000   162381    1.20%
CPX0000     1906   413      820.0000    18      830.0000      820.0000   168942    1.20%
CPX0000     2015   421      820.0000    15      830.0000      820.0000   175465    1.20%
CPX0000     2106   428      820.0000    16      830.0000      820.0000   183430    1.20%
CPX0000     2193   431      820.0000    41      830.0000      820.0000   190324    1.20%
CPX0000     2304   430      820.0000    18      830.0000      820.0000   197319    1.20%
CPX0000     2397   438      820.0000    74      830.0000      820.0000   204801    1.20%
CPX0000  Elapsed time = 70.93 sec. (47187.98 ticks, tree = 37.39 MB
CPX0000     2465   443      820.0000    16      830.0000      820.0000   210303    1.20%
CPX0000     2542   452      820.0000    42      830.0000      820.0000   218297    1.20%
CPX0000     2632   453      820.0000    14      830.0000      820.0000   224929    1.20%
CPX0000     2725   458      820.0000    55      830.0000      820.0000   231918    1.20%
CPX0000     2801   458      820.0000    14      830.0000      820.0000   238856    1.20%
CPX0000     2902   463      820.0000    16      830.0000      820.0000   244468    1.20%
CPX0000     2998   472      820.0000    44      830.0000      820.0000   251526    1.20%
CPX0000     3087   472    infeasible            830.0000      820.0000   257889    1.20%
CPX0000     3168   470    infeasible            830.0000      820.0000   266120    1.20%
CPX0000     3283   535      820.0000    82      830.0000      820.0000   271558    1.20%
CPX0000  Elapsed time = 86.13 sec. (57057.29 ticks, tree = 49.51 MB
CPX0000     3424   624      820.0000     8      830.0000      820.0000   275442    1.20%
CPX0000     3521   700        cutoff            830.0000      820.0000   280354    1.20%
CPX0000     3691   708      820.0000   137      830.0000      820.0000   285421    1.20%
CPX0000     3886   735      820.0000    48      830.0000      820.0000   290537    1.20%
CPX0000     4089   760      820.0000    82      830.0000      820.0000   296068    1.20%
CPX0000     4293   789      820.0000    37      830.0000      820.0000   301347    1.20%
CPX0000     4511   809      820.0000     5      830.0000      820.0000   307066    1.20%
CPX0000     4709   839      820.0000     9      830.0000      820.0000   312805    1.20%
CPX0000     4895   871      820.0000     7      830.0000      820.0000   317861    1.20%
CPX0000     5077   897      820.0000    94      830.0000      820.0000   323690    1.20%
CPX0000  Elapsed time = 99.95 sec. (66682.34 ticks, tree = 97.03 MB
CPX0000     5260   924      820.0000     9      830.0000      820.0000   328852    1.20%
CPX0000     5414   938      820.0000    44      830.0000      820.0000   335010    1.20%
CPX0000     5575   946      820.0000     6      830.0000      820.0000   340192    1.20%
CPX0000     5762   981      820.0000    32      830.0000      820.0000   344569    1.20%
CPX0000     5945  1006      820.0000     6      830.0000      820.0000   349363    1.20%
CPX0000     6111  1020    infeasible            830.0000      820.0000   354309    1.20%
CPX0000     6229  1037      820.0000     7      830.0000      820.0000   360088    1.20%
CPX0000     6387  1041      820.0000    11      830.0000      820.0000   366378    1.20%
CPX0000     6507  1048    infeasible            830.0000      820.0000   372694    1.20%
CPX0000     6636  1067    infeasible            830.0000      820.0000   378827    1.20%
CPX0000  Elapsed time = 114.04 sec. (76270.25 ticks, tree = 119.51 MB
CPX0000     6774  1097      820.0000     7      830.0000      820.0000   384618    1.20%
CPX0000     6904  1101      820.0000     9      830.0000      820.0000   389898    1.20%
CPX0000  *  7004+    1                          820.0000      820.0000   394054    0.00%
[1m[30m[ZEN] [0m00:01:58 [1m[34m    820.00[1m[32m    0.00%
[0mCPX0000
CPX0000  GUB cover cuts applied:  23
CPX0000  Clique cuts applied:  64
CPX0000  Cover cuts applied:  1
CPX0000  Mixed integer rounding cuts applied:  1
CPX0000  Zero-half cuts applied:  2
CPX0000  Gomory fractional cuts applied:  5
CPX0000
CPX0000  Root node processing (before b&c):
CPX0000    Real time             =    9.45 sec. (5883.28 ticks)
CPX0000  Sequential b&c:
CPX0000    Real time             =  109.31 sec. (73947.50 ticks)
CPX0000                            ------------
CPX0000  Total (root+branch&cut) =  118.77 sec. (79830.79 ticks)
H2 understaffing: 0
H3 shiftTypeSuccessions: 0
S1 optimalCoverage: 0
S2a consecutiveShift: 17595 = (1161,12 )
S2b consecutiveWorkingDays: 29820 = ( 844,150 )
S3 consecutiveDaysOff: 18180 = ( 544,62 )
S4 preferences: 20
S5 completeWeekend: 0
S6 totalAssignments: 800
S7 totalWorkingWeekeends: 0
 

Cost Solution: 66415

       |M|T|W|T|F|S|S| |M|T|W|T|F|S|S| |M|T|W|T|F|S|S| |M|T|W|T|F|S|S|
------------------------------------------------------------------------
HN_0   |-|-|L|L|L|L|L| |N|-|N|-|E|-|-| |-|L|-|-|D|-|-| |N|-|N|-|E|E|E|
HN_1   |-|-|E|-|L|-|-| |E|N|N|-|D|-|D| |N|-|-|-|-|-|-| |-|D|-|-|-|-|-|
HN_2   |-|E|L|-|-|-|-| |-|L|L|-|-|-|-| |-|-|E|-|-|-|-| |-|-|L|-|E|-|D|
HN_3   |N|N|-|D|L|-|-| |N|N|-|E|E|E|E| |D|N|N|N|N|-|-| |E|L|L|L|L|N|N|
HN_4   |L|-|-|E|-|E|D| |-|L|-|-|L|-|-| |N|-|D|D|D|-|-| |-|-|-|E|-|-|-|
HN_5   |D|L|L|L|-|N|N| |-|-|D|-|-|-|-| |L|-|-|-|L|-|-| |E|-|E|-|-|-|-|
HN_6   |-|E|-|E|D|N|N| |-|L|N|-|E|L|L| |N|N|-|L|-|-|-| |-|L|-|L|-|-|-|
HN_7   |D|E|E|D|D|-|-| |-|-|-|D|-|E|E| |L|-|-|L|-|D|E| |L|-|-|E|N|-|-|
HN_8   |L|L|-|-|N|-|-| |D|-|D|N|-|N|N| |-|L|L|N|-|-|-| |N|N|-|N|N|-|-|
HN_9   |-|D|D|D|-|-|-| |-|-|-|-|E|D|D| |-|E|-|-|E|-|-| |N|N|-|N|-|-|-|
HN_10  |-|N|-|-|E|L|L| |L|-|L|L|-|-|-| |-|D|E|-|E|-|-| |N|-|E|D|-|E|D|
HN_11  |-|-|L|N|-|-|D| |-|-|-|-|-|-|-| |-|-|-|-|L|-|-| |-|-|D|-|-|-|-|
HN_12  |E|L|N|-|-|-|-| |N|-|D|-|L|-|-| |E|-|E|-|-|-|-| |D|E|D|-|-|-|-|
HN_13  |E|-|N|-|D|-|-| |D|-|-|-|L|-|-| |-|N|-|E|E|D|E| |L|-|-|L|L|L|L|
HN_14  |-|N|-|-|N|-|-| |-|-|E|-|-|-|-| |D|D|-|-|D|N|N| |-|N|-|D|D|-|-|
HN_15  |-|L|-|-|E|E|E| |-|-|-|L|-|-|-| |D|L|N|N|-|-|-| |-|D|D|E|D|D|E|
HN_16  |E|E|E|L|L|-|-| |E|E|E|D|D|-|-| |D|E|E|L|-|N|N| |N|-|E|D|D|N|N|
HN_17  |N|-|D|L|-|-|-| |L|-|L|-|-|-|-| |E|L|-|-|L|-|-| |-|L|L|L|-|-|-|
HN_18  |N|-|D|N|N|-|-| |D|D|E|D|D|L|L| |-|D|D|E|D|L|L| |L|L|N|N|N|-|-|
HN_19  |N|-|L|-|L|-|-| |D|E|E|E|N|-|-| |L|-|D|E|-|L|L| |N|-|-|E|D|-|-|
NU_20  |-|D|-|L|-|-|-| |-|-|D|-|-|D|E| |E|D|E|-|N|-|-| |D|D|-|-|E|-|-|
NU_21  |D|-|D|E|E|-|-| |D|E|D|L|L|N|N| |N|N|-|D|D|D|E| |D|L|L|L|L|-|-|
NU_22  |D|E|E|D|E|D|E| |D|E|D|E|N|-|-| |E|D|D|D|-|D|D| |-|E|L|L|L|-|-|
NU_23  |E|D|-|E|-|-|-| |E|-|-|-|D|-|-| |-|D|N|-|-|-|-| |-|-|D|N|-|N|N|
NU_24  |-|D|-|-|D|-|-| |D|-|E|L|L|-|-| |L|-|-|D|-|-|-| |-|-|-|N|-|L|L|
NU_25  |N|-|N|-|-|-|-| |L|L|-|D|D|-|-| |-|-|E|L|-|E|L| |-|D|D|-|L|-|-|
NU_26  |L|-|D|-|-|-|-| |-|-|E|-|-|-|E| |-|-|-|-|-|-|-| |-|D|-|-|-|-|-|
NU_27  |-|D|-|-|-|-|L| |-|-|L|N|-|-|-| |-|-|-|-|-|-|-| |E|-|L|-|-|-|-|
NU_28  |-|D|-|E|-|-|-| |-|D|D|L|-|E|D| |-|-|D|-|D|-|-| |D|-|N|N|-|-|-|
NU_29  |-|-|E|E|-|N|N| |-|-|-|N|-|-|-| |D|E|E|E|E|-|-| |-|D|-|E|E|E|D|
NU_30  |-|-|-|N|-|-|-| |L|N|-|-|-|-|-| |D|-|D|L|-|E|E| |L|N|-|L|-|-|-|
NU_31  |-|L|L|-|-|-|-| |L|N|-|D|-|-|-| |-|-|D|N|-|-|-| |D|N|-|-|-|E|D|
NU_32  |N|N|N|N|N|-|-| |D|N|N|N|N|N|N| |-|N|N|N|-|D|D| |D|E|E|D|L|-|-|
NU_33  |N|N|-|E|D|D|D| |D|N|N|N|N|-|-| |E|E|E|E|E|-|-| |L|L|-|D|E|E|D|
NU_34  |-|-|-|-|-|-|-| |N|-|L|-|-|N|-| |-|D|-|-|-|-|-| |-|L|-|-|-|-|-|
NU_35  |L|-|L|-|D|-|-| |-|-|E|-|E|E|L| |N|-|D|-|L|-|-| |E|-|D|E|-|D|L|
NU_36  |-|D|-|-|-|-|-| |-|D|N|-|E|E|D| |-|E|E|L|N|-|-| |L|-|-|-|-|-|-|
NU_37  |N|-|-|E|L|-|-| |-|D|-|N|-|L|L| |-|-|D|E|-|-|-| |D|-|-|L|-|-|-|
NU_38  |-|D|E|E|D|E|D| |D|D|L|L|N|-|-| |E|L|L|L|N|-|-| |E|E|L|-|E|N|N|
NU_39  |-|E|D|-|D|N|N| |-|L|-|D|L|-|-| |N|-|E|E|L|N|N| |-|-|D|-|D|-|-|
CT_40  |-|-|-|L|-|-|-| |-|L|-|D|L|-|-| |-|-|-|-|-|-|-| |-|-|-|-|E|-|D|
CT_41  |N|N|-|-|L|-|-| |N|-|L|L|-|-|-| |-|D|-|N|N|-|D| |-|-|-|-|N|-|-|
CT_42  |D|E|D|D|E|D|D| |N|-|D|D|N|-|-| |L|L|L|L|N|-|-| |D|E|N|-|L|L|L|
CT_43  |-|-|-|N|-|-|-| |-|-|-|-|D|-|-| |-|-|L|L|L|-|-| |-|-|-|-|-|-|-|
CT_44  |-|L|-|D|-|L|L| |-|L|L|N|-|-|-| |-|-|N|-|-|-|-| |L|-|E|-|N|-|-|
CT_45  |L|-|-|D|L|-|-| |E|N|-|L|N|N|N| |-|E|E|-|D|-|-| |-|L|-|D|E|-|-|
CT_46  |-|-|E|-|L|L|N| |-|-|-|D|-|-|-| |-|L|L|-|-|-|-| |E|N|-|D|L|-|-|
CT_47  |D|D|D|L|L|L|L| |L|N|-|E|L|-|-| |D|D|E|D|D|-|-| |-|E|E|D|E|L|N|
CT_48  |E|-|-|L|L|-|-| |-|L|N|N|-|-|-| |L|-|-|-|E|L|L| |-|-|N|-|-|-|-|
CT_49  |D|E|E|D|E|E|E| |D|D|D|L|-|-|-| |D|E|E|-|E|-|-| |E|E|D|D|L|L|L|
CT_50  |L|L|-|L|-|-|-| |-|E|E|L|-|-|-| |E|D|N|-|D|E|E| |-|N|-|L|N|-|-|
CT_51  |-|-|L|-|L|-|-| |-|L|-|N|N|-|-| |N|-|N|-|L|-|-| |-|D|-|L|N|-|-|
CT_52  |D|-|D|D|-|-|-| |D|E|-|-|E|L|L| |-|L|-|-|D|N|N| |-|L|-|D|E|-|-|
CT_53  |-|N|-|-|E|L|N| |N|-|N|-|E|-|-| |-|E|-|-|-|-|-| |E|N|-|-|N|-|-|
CT_54  |N|N|N|-|E|-|-| |E|E|N|N|N|-|-| |N|N|N|N|N|N|N| |N|N|N|-|L|L|L|
CT_55  |L|-|D|L|-|-|-| |-|-|-|E|-|-|-| |-|-|-|-|-|-|D| |N|N|-|-|-|-|-|
CT_56  |-|-|-|-|-|-|-| |N|-|L|-|-|-|-| |-|-|-|L|-|-|-| |-|D|D|-|-|-|D|
CT_57  |E|E|N|-|-|E|E| |-|-|N|N|-|-|-| |-|E|-|N|-|-|-| |N|-|N|-|-|-|-|
CT_58  |-|-|-|-|-|-|D| |L|-|N|-|D|-|-| |-|-|N|-|-|-|-| |D|L|-|-|-|-|-|
CT_59  |E|L|-|-|-|-|-| |L|L|N|-|L|-|-| |-|D|D|E|D|D|D| |D|-|N|N|-|-|-|
CT_60  |L|-|N|-|-|E|E| |-|N|N|-|D|-|-| |E|-|L|-|-|-|-| |N|-|D|-|-|-|-|
CT_61  |-|-|-|-|-|-|-| |-|-|L|-|D|-|-| |-|N|-|-|-|N|-| |-|-|L|-|-|-|-|
CT_62  |E|D|D|E|E|D|E| |E|E|E|-|E|-|-| |L|L|L|L|L|-|-| |N|N|N|N|N|N|N|
CT_63  |E|N|-|D|D|L|L| |-|N|-|E|D|-|-| |-|-|L|-|-|-|-| |N|-|-|E|E|D|E|
CT_64  |N|N|-|E|-|-|-| |-|D|-|E|E|D|D| |E|D|-|-|E|-|-| |N|-|N|-|-|-|-|
CT_65  |D|D|N|N|-|-|-| |E|E|E|E|D|L|L| |N|N|-|E|L|-|-| |E|L|L|L|L|L|N|
CT_66  |N|-|L|-|N|N|N| |N|-|-|-|N|N|N| |N|-|-|-|E|-|-| |L|L|-|E|L|-|-|
CT_67  |-|-|-|N|N|-|-| |-|-|-|-|-|-|L| |-|N|-|E|L|-|-| |-|-|-|-|D|-|-|
CT_68  |L|L|-|-|E|-|-| |-|N|-|L|-|-|-| |E|N|-|D|-|L|L| |-|-|L|-|-|-|-|
CT_69  |-|L|-|L|N|-|-| |-|-|-|E|D|E|E| |N|-|-|L|-|-|-| |-|D|E|-|-|-|-|
CT_70  |D|-|N|-|D|N|N| |-|-|-|D|-|D|D| |-|N|-|E|-|-|-| |E|E|D|E|L|-|-|
CT_71  |D|L|L|-|L|-|-| |-|-|-|L|-|-|-| |E|E|-|D|-|-|-| |-|E|-|N|-|-|E|
CT_72  |-|-|-|-|-|-|-| |N|-|-|-|-|-|-| |L|-|-|-|D|-|E| |-|-|-|-|D|-|-|
CT_73  |-|-|-|N|-|-|D| |-|-|-|-|-|-|-| |L|-|-|-|-|-|-| |-|E|L|-|-|-|-|
CT_74  |N|-|-|-|-|-|-| |-|-|-|-|L|-|D| |-|-|-|N|-|-|-| |-|-|-|N|-|-|-|
CT_75  |E|E|D|D|E|-|-| |-|D|L|-|L|-|-| |E|N|-|D|E|D|D| |-|-|-|-|D|-|-|
CT_76  |-|N|N|N|N|-|-| |E|E|E|N|-|D|D| |D|N|N|N|N|-|-| |D|D|D|E|E|N|N|
CT_77  |D|-|E|N|N|-|-| |E|D|D|D|E|-|-| |D|L|L|L|L|L|L| |L|-|E|D|D|D|E|
CT_78  |L|L|L|-|E|-|-| |-|E|D|D|N|-|-| |D|E|D|E|E|E|E| |D|D|E|E|D|E|E|
CT_79  |-|-|-|-|-|-|-| |N|-|D|E|-|-|E| |N|-|D|-|N|-|-| |L|-|-|-|-|-|-|
TR_80  |-|L|L|-|D|-|-| |E|L|-|E|-|E|D| |E|E|L|-|E|-|-| |D|-|N|-|D|-|-|
TR_81  |N|N|N|-|-|-|-| |L|-|L|-|-|-|-| |N|-|L|-|D|-|-| |D|-|D|L|-|-|-|
TR_82  |-|L|-|D|-|L|N| |-|-|-|D|L|-|-| |-|D|N|-|-|-|-| |L|L|-|E|-|-|-|
TR_83  |L|-|E|N|N|-|-| |-|-|L|-|D|D|D| |-|E|L|L|-|-|-| |-|D|E|-|-|D|E|
TR_84  |-|-|-|-|E|D|L| |-|D|N|-|E|-|-| |N|N|-|-|L|-|-| |E|D|N|-|E|D|N|
TR_85  |-|E|-|-|-|-|-| |-|-|L|N|-|-|-| |-|D|-|-|-|L|-| |-|-|-|-|-|-|-|
TR_86  |D|-|E|E|-|-|-| |N|N|-|-|D|-|-| |-|N|-|N|-|-|-| |L|-|-|L|N|-|-|
TR_87  |E|-|-|-|D|-|-| |L|N|-|E|E|D|E| |N|-|-|-|-|E|N| |N|-|E|E|L|-|-|
TR_88  |D|-|D|-|D|D|N| |-|D|-|-|-|-|-| |D|-|E|-|N|-|-| |E|L|N|-|D|E|L|
TR_89  |E|N|N|-|E|-|-| |E|E|E|E|N|-|-| |N|N|-|E|D|D|E| |E|D|E|E|E|L|L|
TR_90  |-|L|L|-|L|-|-| |L|L|-|-|N|-|-| |-|-|N|N|N|-|-| |-|E|D|-|-|-|-|
TR_91  |-|E|E|D|D|D|E| |E|N|N|N|-|-|-| |E|L|N|-|E|D|D| |D|E|E|D|L|-|-|
TR_92  |-|-|-|L|-|N|-| |-|-|-|N|-|-|-| |D|-|-|-|D|-|-| |-|-|-|-|-|-|-|
TR_93  |N|-|D|D|L|-|-| |-|D|L|L|-|-|-| |L|-|-|D|-|-|-| |-|-|-|N|N|-|-|
TR_94  |L|N|-|-|E|-|-| |-|L|-|-|N|N|N| |-|L|N|-|-|-|-| |L|N|-|-|-|-|-|
TR_95  |-|-|E|E|-|-|-| |-|-|N|-|-|-|-| |L|-|-|-|-|-|-| |-|-|-|L|-|-|-|
TR_96  |-|D|-|-|E|-|-| |N|-|D|-|N|-|-| |L|L|-|N|N|N|N| |N|-|E|D|E|-|-|
TR_97  |L|N|N|N|N|-|-| |N|N|-|L|L|L|L| |N|-|E|E|L|-|-| |E|E|D|D|E|E|E|
TR_98  |N|-|-|L|-|-|-| |N|-|E|N|-|-|-| |E|D|D|L|L|L|L| |N|-|-|E|D|-|-|
TR_99  |E|N|-|E|-|-|-| |D|E|E|E|-|-|-| |-|L|L|N|-|-|-| |D|E|E|E|D|-|-|
TR_100 |D|E|D|L|L|L|L| |-|D|D|L|N|-|-| |E|D|D|D|E|N|N| |-|L|L|N|N|-|-|
TR_101 |E|D|E|D|N|-|-| |L|-|D|D|E|E|E| |D|L|-|D|D|E|D| |E|D|L|N|-|-|-|
TR_102 |-|-|-|-|-|-|-| |D|-|D|D|-|-|-| |-|-|-|-|-|D|-| |-|N|-|-|-|-|-|
TR_103 |-|E|D|N|-|-|-| |L|L|-|-|-|-|-| |-|E|D|E|D|-|-| |-|-|L|N|-|-|-|
TR_104 |D|E|E|E|D|E|E| |D|E|E|D|D|L|N| |-|D|D|L|L|-|-| |D|N|-|D|E|-|-|
TR_105 |N|-|L|L|-|-|-| |-|L|L|-|E|E|L| |L|-|E|L|-|E|D| |-|N|-|-|L|-|-|
TR_106 |E|L|-|E|E|E|D| |D|E|N|N|N|-|-| |D|E|D|D|E|-|-| |N|N|-|L|N|N|N|
TR_107 |D|D|N|N|-|L|L| |N|-|E|-|L|-|-| |-|N|-|-|L|-|-| |-|E|N|-|-|D|D|
TR_108 |-|D|-|-|-|-|-| |-|-|D|-|-|-|-| |-|E|-|-|-|-|-| |-|-|D|-|-|L|-|
TR_109 |L|-|-|-|N|-|-| |-|L|-|E|D|N|N| |-|-|E|E|N|-|-| |L|L|-|-|D|L|L|


Hard constraint violations
--------------------------

Minimal coverage constraints: 0
Required skill constraints: 0
Illegal shift type succession constraints: 0
Single assignment per day: 0


Cost per constraint type
------------------------

Total assignment constraints: 800
Consecutive constraints: 47415
Non working days constraints: 18180
Preferences: 20
Max working weekend: 0
Complete weekends: 0
Optimal coverage constraints: 0

------------------------

Total cost: 66415
